50 50 50
1 2 3
4 5 6
7 8 9
1 2 3
4 5 6
7 8 9
1 2 3
4 5 6
7 8 9
1 2 3
4 5 6
7 8 9
1 3 5
2 4 6
3 5 7
1 4 6
2 5 7
3 6 8
1 10 4
2 10 5
3 10 7
4 5 10
4 3 8
5 2 9
10 12 14
4 5 10
5 10 12
1 0 15
10 20 100
1 4 5
1 2 3
1 1 1
2 3 4
4 4 4
3 3 3
2 2 2
1 11 4
1 0 1
10 1 10
2 3 4
3 0 3
1 5 5
2 3 4
1 5 3
2 1 11
3 10 2
1 3 4
1 1 1
2 2 2
3 3 4
